words_hard_train/1143.qaiger
aag 141 21 0 1 120
2
4
8
16
34
42
60
68
86
94
112
120
138
146
166
170
172
206
214
226
236
283
6 3 4
10 3 9
12 2 8
14 11 13
18 4 16
20 5 17
22 19 21
24 15 23
26 14 22
28 25 27
30 6 28
32 31 27
36 13 35
38 12 34
40 37 39
44 21 42
46 20 43
48 45 47
50 41 49
52 40 48
54 51 53
56 33 54
58 57 53
62 39 61
64 38 60
66 63 65
70 47 68
72 46 69
74 71 73
76 67 75
78 66 74
80 77 79
82 59 80
84 83 79
88 65 87
90 64 86
92 89 91
96 73 94
98 72 95
100 97 99
102 93 101
104 92 100
106 103 105
108 85 106
110 109 105
114 91 113
116 90 112
118 115 117
122 99 120
124 98 121
126 123 125
128 119 127
130 118 126
132 129 131
134 111 132
136 135 131
140 116 138
142 117 139
144 141 143
148 124 147
150 125 146
152 149 151
154 145 153
156 144 152
158 155 157
160 136 159
162 137 158
164 161 163
168 165 167
174 170 173
176 171 172
178 175 177
180 178 149
182 179 148
184 181 183
186 185 141
188 184 140
190 187 189
192 163 157
194 190 193
196 191 192
198 195 197
200 169 198
202 58 81
204 203 83
208 205 206
210 7 29
212 211 31
216 213 215
218 212 214
220 217 219
222 32 55
224 223 57
228 225 226
230 221 229
232 2 5
234 233 7
238 235 237
240 234 236
242 239 241
244 224 227
246 243 245
248 230 246
250 204 207
252 248 251
254 209 252
256 84 107
258 257 109
260 259 167
262 110 133
264 263 135
266 260 265
268 258 166
270 268 264
272 267 271
274 254 273
276 201 274
278 164 166
280 279 199
282 276 281
i0 2 y1[0]
i1 1 x1[0]
i2 2 y1[1]
i3 1 x1[1]
i4 2 y1[2]
i5 1 x1[2]
i6 2 y1[3]
i7 1 x1[3]
i8 2 y1[4]
i9 1 x1[4]
i10 2 y1[5]
i11 1 x1[5]
i12 2 y1[6]
i13 1 x1[6]
i14 2 y2[7]
i15 2 y1[7]
i16 1 x1[7]
i17 2 y2[6]
i18 2 y2[4]
i19 2 y2[5]
i20 2 y2[3]
o0 bool[0]
c
simplified
  !=
    subtract
      add
        2 y1
        1
      1 x1
    >> 3
      2 y2
