words_hard_train/1143.qaiger.qdimacs
p cnf 141 361
a 2 34 8 73 47 21 86 60 0
e 1 3 4 5 6 7 9 10 11 12 13 14 15 16 17 18 19 20 22 23 24 25 26 27 28 29 30 31 32 33 35 36 37 38 39 40 41 42 43 44 45 46 48 49 50 51 52 53 54 55 56 57 58 59 61 62 63 64 65 66 67 68 69 70 71 72 74 75 76 77 78 79 80 81 82 83 84 85 87 88 89 90 91 92 93 94 95 96 97 98 99 100 101 102 103 104 105 106 107 108 109 110 111 112 113 114 115 116 117 118 119 120 121 122 123 124 125 126 127 128 129 130 131 132 133 134 135 136 137 138 139 140 141 0
1 -2 3 0
-1 -3 0
2 -3 0
1 4 5 0
-1 -5 0
-4 -5 0
-1 -4 6 0
1 -6 0
4 -6 0
5 6 7 0
-5 -7 0
-6 -7 0
-2 -8 9 0
2 -9 0
8 -9 0
2 8 10 0
-2 -10 0
-8 -10 0
9 10 11 0
-9 -11 0
-10 -11 0
7 11 12 0
-7 -12 0
-11 -12 0
-7 -11 13 0
7 -13 0
11 -13 0
12 13 14 0
-12 -14 0
-13 -14 0
-3 -14 15 0
3 -15 0
14 -15 0
15 13 16 0
-15 -16 0
-13 -16 0
6 17 18 0
-6 -18 0
-17 -18 0
-6 -17 19 0
6 -19 0
17 -19 0
18 19 20 0
-18 -20 0
-19 -20 0
10 -21 22 0
-10 -22 0
21 -22 0
-10 21 23 0
10 -23 0
-21 -23 0
22 23 24 0
-22 -24 0
-23 -24 0
20 24 25 0
-20 -25 0
-24 -25 0
-20 -24 26 0
20 -26 0
24 -26 0
25 26 27 0
-25 -27 0
-26 -27 0
16 -27 28 0
-16 -28 0
27 -28 0
28 26 29 0
-28 -29 0
-26 -29 0
19 30 31 0
-19 -31 0
-30 -31 0
-19 -30 32 0
19 -32 0
30 -32 0
31 32 33 0
-31 -33 0
-32 -33 0
23 -34 35 0
-23 -35 0
34 -35 0
-23 34 36 0
23 -36 0
-34 -36 0
35 36 37 0
-35 -37 0
-36 -37 0
33 37 38 0
-33 -38 0
-37 -38 0
-33 -37 39 0
33 -39 0
37 -39 0
38 39 40 0
-38 -40 0
-39 -40 0
29 -40 41 0
-29 -41 0
40 -41 0
41 39 42 0
-41 -42 0
-39 -42 0
32 43 44 0
-32 -44 0
-43 -44 0
-32 -43 45 0
32 -45 0
43 -45 0
44 45 46 0
-44 -46 0
-45 -46 0
36 -47 48 0
-36 -48 0
47 -48 0
-36 47 49 0
36 -49 0
-47 -49 0
48 49 50 0
-48 -50 0
-49 -50 0
46 50 51 0
-46 -51 0
-50 -51 0
-46 -50 52 0
46 -52 0
50 -52 0
51 52 53 0
-51 -53 0
-52 -53 0
42 -53 54 0
-42 -54 0
53 -54 0
54 52 55 0
-54 -55 0
-52 -55 0
45 56 57 0
-45 -57 0
-56 -57 0
-45 -56 58 0
45 -58 0
56 -58 0
57 58 59 0
-57 -59 0
-58 -59 0
49 -60 61 0
-49 -61 0
60 -61 0
-49 60 62 0
49 -62 0
-60 -62 0
61 62 63 0
-61 -63 0
-62 -63 0
59 63 64 0
-59 -64 0
-63 -64 0
-59 -63 65 0
59 -65 0
63 -65 0
64 65 66 0
-64 -66 0
-65 -66 0
55 -66 67 0
-55 -67 0
66 -67 0
67 65 68 0
-67 -68 0
-65 -68 0
-58 -69 70 0
58 -70 0
69 -70 0
58 69 71 0
-58 -71 0
-69 -71 0
70 71 72 0
-70 -72 0
-71 -72 0
-62 73 74 0
62 -74 0
-73 -74 0
62 -73 75 0
-62 -75 0
73 -75 0
74 75 76 0
-74 -76 0
-75 -76 0
72 76 77 0
-72 -77 0
-76 -77 0
-72 -76 78 0
72 -78 0
76 -78 0
77 78 79 0
-77 -79 0
-78 -79 0
-68 79 80 0
68 -80 0
-79 -80 0
68 -79 81 0
-68 -81 0
79 -81 0
80 81 82 0
-80 -82 0
-81 -82 0
82 83 84 0
-82 -84 0
-83 -84 0
-85 86 87 0
85 -87 0
-86 -87 0
85 -86 88 0
-85 -88 0
86 -88 0
87 88 89 0
-87 -89 0
-88 -89 0
-89 74 90 0
89 -90 0
-74 -90 0
89 -74 91 0
-89 -91 0
74 -91 0
90 91 92 0
-90 -92 0
-91 -92 0
92 70 93 0
-92 -93 0
-70 -93 0
-92 -70 94 0
92 -94 0
70 -94 0
93 94 95 0
-93 -95 0
-94 -95 0
81 78 96 0
-81 -96 0
-78 -96 0
-95 96 97 0
95 -97 0
-96 -97 0
95 -96 98 0
-95 -98 0
96 -98 0
97 98 99 0
-97 -99 0
-98 -99 0
84 -99 100 0
-84 -100 0
99 -100 0
-29 40 101 0
29 -101 0
-40 -101 0
101 41 102 0
-101 -102 0
-41 -102 0
102 -103 104 0
-102 -104 0
103 -104 0
3 14 105 0
-3 -105 0
-14 -105 0
105 15 106 0
-105 -106 0
-15 -106 0
106 107 108 0
-106 -108 0
-107 -108 0
-106 -107 109 0
106 -109 0
107 -109 0
108 109 110 0
-108 -110 0
-109 -110 0
-16 27 111 0
16 -111 0
-27 -111 0
111 28 112 0
-111 -112 0
-28 -112 0
112 -113 114 0
-112 -114 0
113 -114 0
110 114 115 0
-110 -115 0
-114 -115 0
-1 2 116 0
1 -116 0
-2 -116 0
116 3 117 0
-116 -117 0
-3 -117 0
117 118 119 0
-117 -119 0
-118 -119 0
-117 -118 120 0
117 -120 0
118 -120 0
119 120 121 0
-119 -121 0
-120 -121 0
-112 113 122 0
112 -122 0
-113 -122 0
121 122 123 0
-121 -123 0
-122 -123 0
-115 -123 124 0
115 -124 0
123 -124 0
-102 103 125 0
102 -125 0
-103 -125 0
-124 125 126 0
124 -126 0
-125 -126 0
104 -126 127 0
-104 -127 0
126 -127 0
-42 53 128 0
42 -128 0
-53 -128 0
128 54 129 0
-128 -129 0
-54 -129 0
129 83 130 0
-129 -130 0
-83 -130 0
-55 66 131 0
55 -131 0
-66 -131 0
131 67 132 0
-131 -132 0
-67 -132 0
-130 132 133 0
130 -133 0
-132 -133 0
-129 -83 134 0
129 -134 0
83 -134 0
-134 -132 135 0
134 -135 0
132 -135 0
133 135 136 0
-133 -136 0
-135 -136 0
-127 136 137 0
127 -137 0
-136 -137 0
100 -137 138 0
-100 -138 0
137 -138 0
-82 -83 139 0
82 -139 0
83 -139 0
139 99 140 0
-139 -140 0
-99 -140 0
-138 140 141 0
138 -141 0
-140 -141 0
-141 0
